c --- [ banner ] -------------------------------------------------------------
c 
c CaDiCaL Radically Simplified CDCL SAT Solver
c Copyright (c) 2016-2021 A. Biere, M. Fleury, N. Froleyks
c 
c Version 1.5.2 a5f15211db36c3956764e18194dd5bd63bf3b5e6
c g++ (GCC) 9.3.0 -Wall -Wextra -O3 -DNDEBUG
c Fri Oct 21 01:27:37 EDT 2022 Linux gra-login3 3.10.0-1160.66.1.el7.x86_64 x86_64
c 
c --- [ limit ] --------------------------------------------------------------
c 
c setting conflict limit to 200000 conflicts (due to '200000')
c 
c --- [ parsing input ] ------------------------------------------------------
c 
c reading DIMACS file from '33.cubes448.adj'
c opening file to read '33.cubes448.adj'
c found 'p cnf 6160 1595469' header
c parsed 1595469 clauses in 19.68 seconds process time
c closing file '33.cubes448.adj'
c after reading 1457566736 bytes 1390.0 MB
c 
c --- [ options ] ------------------------------------------------------------
c 
c all options are set to their default value
c 
c --- [ solving ] ------------------------------------------------------------
c 
c time measured in process time since initialization
c 
c  seconds    reductions  redundant   irredundant
c          MB     restarts       trail       variables
c            level   conflicts       glue         remaining
c 
c * 19.68 1375  0 0   0    0    0  0% 0 1595422 2353 38%
c { 21.01 1433  0 0   0    0    0  0% 0 1595422 2353 38%
c i 23.95 1478 221 0  17  215  132 26% 15 1595422 2352 38%
c i 24.21 1479 213 0  18  230  143 26% 16 1595422 2351 38%
c - 28.43 1382 165 1  19  303  206 27% 14 175887 2351 38%
c i 28.86 1382 110 1  19  478  324 27% 12 175887 2350 38%
c i 28.87 1382 109 1  19  482  327 27% 12 175887 2349 38%
c i 28.91 1382 105 1  19  502  340 27% 12 175887 2348 38%
c i 28.94 1382 101 1  24  527  351 27% 12 175887 2347 38%
c i 28.94 1382 101 1  24  528  351 27% 12 175887 2346 38%
c i 28.94 1382 101 1  24  530  352 27% 12 175887 2345 38%
c i 28.96 1382 99 1  24  544  362 28% 12 175887 2344 38%
c i 29.13 1382 94 1  33  587  402 28% 14 175887 2343 38%
c i 29.14 1382 94 1  34  588  402 28% 14 175887 2342 38%
c i 29.14 1382 94 1  34  590  403 28% 14 175887 2334 38%
c i 29.49 1382 91 1  50  652  462 28% 16 175887 2333 38%
c i 29.53 1382 89 1  55  671  475 28% 16 175887 2332 38%
c i 29.57 1382 88 1  60  691  491 28% 16 175887 2331 38%
c i 29.57 1382 88 1  61  694  493 28% 16 175887 2330 38%
c i 29.83 1382 90 1  73  740  532 28% 17 175887 2329 38%
c 
c  seconds    reductions  redundant   irredundant
c          MB     restarts       trail       variables
c            level   conflicts       glue         remaining
c 
c i 29.90 1382 91 1  75  753  541 28% 17 175887 2328 38%
c i 30.08 1383 85 1  94  824  581 28% 17 175887 2327 38%
c i 30.09 1383 85 1  96  830  586 28% 17 175887 2326 38%
c i 30.15 1383 84 1  98  840  595 28% 18 175887 2325 38%
c i 30.41 1382 81 1 120  923  670 28% 19 175887 2324 38%
c i 30.41 1382 81 1 121  924  670 28% 18 175887 2323 38%
c i 30.41 1382 81 1 121  926  671 28% 18 175887 2322 38%
c i 30.57 1382 81 1 127  942  686 28% 18 175887 2321 38%
c i 30.66 1383 80 1 135  973  716 28% 19 175887 2320 38%
c i 30.77 1383 80 1 141  998  738 28% 19 175887 2319 38%
c } 30.79 1383 80 1 142 1002  742 28% 20 175887 2319 38%
c [ 30.79 1383  0 1 142 1002  742  0% 0 175887 2319 38%
c O 30.80 1383  5 1 142 1003  743 17% 3 175887 2319 38%
c i 30.88 1383  8 1 142 1044  753 22% 7 175887 2318 38%
c - 31.17 1446  9 2 142 1050  691 23% 8 175670 2318 38%
c i 31.19 1446  9 2 142 1054  694 24% 8 175670 2317 38%
c i 31.22 1446 11 2 142 1084  708 27% 10 175670 2316 38%
c i 31.23 1446 11 2 142 1103  717 28% 10 175670 2315 38%
c i 31.25 1446 11 2 142 1161  730 29% 10 175670 2314 38%
c i 31.25 1446 11 2 142 1162  730 29% 10 175670 2313 38%
c 
c  seconds    reductions  redundant   irredundant
c          MB     restarts       trail       variables
c            level   conflicts       glue         remaining
c 
c i 31.25 1446 11 2 142 1163  730 29% 10 175670 2312 38%
c i 31.25 1446 11 2 142 1167  731 29% 10 175670 2311 38%
c ] 31.26 1446 11 2 142 1174  736 29% 10 175670 2311 38%
c 1 31.26 1446 11 2 142 1174  736 29% 10 175670 2311 38%
c 
c --- [ writing output ] -----------------------------------------------------
c 
c writing simplified CNF to DIMACS file 'simp/33.cubes448.adj.simp1'
c * 31.26 1446 11 2 142 1174  736 29% 10 175670 2311 38%
c opening file to write 'simp/33.cubes448.adj.simp1'
c writing 'p cnf 6160 175649' header
c closing file 'simp/33.cubes448.adj.simp1'
c after writing 70554985 bytes 67.3 MB
c wrote 175649 clauses in 0.54 seconds process time
c 
c --- [ writing extension ] --------------------------------------------------
c 
c writing extension stack to 'simp/33.cubes448.adj.ext1'
c opening file to write 'simp/33.cubes448.adj.ext1'
c closing file 'simp/33.cubes448.adj.ext1'
c after writing 10496 bytes 0.0 MB
c wrote 705 witnesses in 0.00 seconds process time
c 
c --- [ result ] -------------------------------------------------------------
c 
s SATISFIABLE
c 
c --- [ run-time profiling ] -------------------------------------------------
c 
c process time taken by individual solving procedures
c (percentage relative to process time for solving)
c 
c        19.68  169.97% parse
c        11.58  100.00% search
c         9.78   84.44% unstable
c         1.33   11.51% lucky
c         0.47    4.04% stable
c         0.00    0.00% simplify
c   =================================
c        11.58   36.41% solve
c 
c last line shows process time for solving
c (percentage relative to total process time)
c 
c --- [ statistics ] ---------------------------------------------------------
c 
c chronological:               350        29.81 %  of conflicts
c conflicts:                  1174       101.40    per second
c decisions:                 15229      1315.41    per second
c fixed:                       705        11.44 %  of all variables
c learned:                    1137        96.85 %  per conflict
c learned_lits:             129398       100.00 %  learned literals
c minimized:                     0         0.00 %  learned literals
c shrunken:                  74071        57.24 %  learned literals
c minishrunken:               9612         7.43 %  learned literals
c propagations:             242786         0.02 M  per second
c reduced:                      66         5.62 %  per conflict
c rephased:                      1      1174.00    interval
c restarts:                    142         8.27    interval
c stabilizing:                   1        14.65 %  of conflicts
c subsumed:                    300         0.01 %  of all clauses
c 
c seconds are measured in process time for solving
c 
c --- [ resources ] ----------------------------------------------------------
c 
c total process time since initialization:        31.79    seconds
c total real time since initialization:           32.04    seconds
c maximum resident set size of process:         1479.74    MB
c 
c --- [ shutting down ] ------------------------------------------------------
c 
c exit 10
WARNING! DIMACS header mismatch: wrong number of variables.
============================[ Problem Statistics ]=============================
|                                                                             |
|  Number of variables:          6120                                         |
|  Number of clauses:          175649                                         |
|  Parse time:                   0.95 s                                       |
|  Simplification time:          0.02 s                                       |
|                                                                             |
============================[ Search Statistics ]====================================================
| Conflicts |          ORIGINAL         |          LEARNT          | Num Sols |      SUBGRAPHS      |
|           |    Vars  Clauses Literals |    Limit  Clauses Lit/Cl |          | Canonical Noncanon. |
=====================================================================================================
|       101 |    6022   175650 15612678 |     2000      100     67 |        0 |        22         1 |
|       347 |    6018   175746 15614880 |     2000      342     93 |        0 |        43        97 |
|       574 |    6015   175748 15615074 |     2000      566    119 |        0 |        59        99 |
|       915 |    6007   175752 15615372 |     2000      899    118 |        0 |        79       103 |
|      1458 |    6003   175789 15616895 |     2000     1438    112 |        0 |       111       140 |
|      2316 |    5999   175888 15618339 |     3588     1303     45 |        0 |       161       239 |
|      3525 |    5997   175958 15619622 |     3588     2510     63 |        0 |       187       309 |
|      5384 |    5995   176109 15623594 |     4996     2580     52 |        0 |       298       460 |
|      7984 |    5994   176147 15624736 |     6302     2686     42 |        0 |       375       498 |
|     12210 |    5994   176529 15631860 |     7551     3761     53 |        0 |       508       880 |
|     18303 |    5994   176856 15640129 |     8784     6087     59 |        0 |       700      1207 |
|     28600 |    5994   178504 15673593 |    11200     7000     53 |        0 |      1114      2855 |
|     42669 |    5994   179599 15695687 |    13608     9277     60 |        0 |      1413      3950 |
|     63944 |    5994   181413 15731394 |    17204     8348     34 |        0 |      1847      5764 |
|     94539 |    5994   182816 15756937 |    20812    11351     49 |        0 |      2327      7167 |
|    142265 |    5994   186667 15836247 |    25620    13885     50 |        0 |      3257     11104 |
|    212400 |    5994   191118 15923576 |    30409    29209     87 |        0 |      4617     15555 |
|    312454 |    5994   192646 15956545 |    37613    29067     76 |        0 |      5575     17083 |
|    466577 |    5994   198980 16071410 |    46007    38984     79 |        0 |      7018     23417 |
|    705488 |    5994   216208 16341065 |    56815    49303     84 |        0 |      9482     40645 |
|   1062111 |    5994   240306 16726106 |    70010    60521     82 |        0 |     13309     64743 |
|   1593228 |    5994   272635 17303030 |    86828    47056     48 |        0 |     23589     97072 |
|   2393408 |    5994   324633 18167651 |   106010    80818     64 |        0 |     31842    149070 |
|   3629434 |    5994   438385 19874136 |   131221    77855     49 |        0 |     51610    262822 |
|   5530265 |    5983   311142 15269904 |   161146   158611     78 |        0 |     85823    480242 |
=====================================================================================================
Number of solutions   : 0
Canonical subgraphs   : 97112          (54 /sec)
          order  3    : 1              (200000 /sec)
          order  4    : 1              (500000 /sec)
          order  5    : 1              (200000 /sec)
          order  6    : 1              (55556 /sec)
          order  7    : 2              (9950 /sec)
          order  8    : 6              (2610 /sec)
          order  9    : 16             (615 /sec)
          order 10    : 81             (239 /sec)
          order 11    : 627            (113 /sec)
          order 12    : 4964           (89 /sec)
          order 13    : 22993          (62 /sec)
          order 14    : 47524          (52 /sec)
          order 15    : 13982          (51 /sec)
          order 16    : 1872           (44 /sec)
          order 17    : 1304           (42 /sec)
          order 18    : 1095           (40 /sec)
          order 19    : 889            (42 /sec)
          order 20    : 848            (42 /sec)
          order 21    : 905            (42 /sec)
          order 22    : 0              (-nan /sec)
Noncanonical subgraphs: 540777         (563 /sec)
          order  3    : 0              (-nan /sec)
          order  4    : 0              (-nan /sec)
          order  5    : 0              (-nan /sec)
          order  6    : 0              (-nan /sec)
          order  7    : 0              (-nan /sec)
          order  8    : 0              (-nan /sec)
          order  9    : 0              (-nan /sec)
          order 10    : 0              (-nan /sec)
          order 11    : 0              (-nan /sec)
          order 12    : 0              (-nan /sec)
          order 13    : 103613         (1357 /sec)
          order 14    : 384562         (536 /sec)
          order 15    : 51035          (373 /sec)
          order 16    : 453            (264 /sec)
          order 17    : 16             (1087 /sec)
          order 18    : 0              (-nan /sec)
          order 19    : 0              (-nan /sec)
          order 20    : 0              (-nan /sec)
          order 21    : 0              (-nan /sec)
Canonicity checking   : 1789.8 s
Noncanonicity checking: 960.285 s
Total canonicity time : 2750.09 s
database reductions   : 139
restarts              : 9724
conflicts             : 6049632        (1008 /sec)
decisions             : 7815207        (0.00 % random) (1302 /sec)
propagations          : 832765983      (138760 /sec)
conflict literals     : 715144924      (53.62 % deleted)
actual reward         : 0.095699
Memory used           : 314.00 MB
CPU time              : 6001.49 s

UNSATISFIABLE
